(set-info :source |printed by MathSAT|)
(declare-fun diff0 () Int)
(declare-fun call__main_.call_controleur2.diff () Int)
(declare-fun call__main_._H0_ () Bool)
(declare-fun call__main_.diff1 () Int)
(declare-fun call__main_.nB0 () Int)
(declare-fun nB1 () Int)
(declare-fun retard1 () Bool)
(declare-fun call__main_.call_hypothese2.c () Int)
(declare-fun call__main_.avance1 () Bool)
(declare-fun call__main_.call_controleur.retard () Bool)
(declare-fun call__main_.call_hypothese.flby2 () Int)
(declare-fun call__main_.call_controleur2.avance () Bool)
(declare-fun call_Sofar.flby () Bool)
(declare-fun call__main_.call_hypothese2.flby () Bool)
(declare-fun call__main_.call_controleur.diff () Int)
(declare-fun call__main_.diff0 () Int)
(declare-fun ast () Bool)
(declare-fun diff1 () Int)
(declare-fun call__main_.call_controleur2.flby2 () Bool)
(declare-fun call__main_.nB1 () Int)
(declare-fun call__main_.retard1 () Bool)
(declare-fun call__main_.ast () Bool)
(declare-fun call__main_.call_hypothese.c () Int)
(declare-fun nS () Int)
(declare-fun avance0 () Bool)
(declare-fun _OK_ () Bool)
(declare-fun call__main_.call_hypothese.ok () Bool)
(declare-fun call__main_.call_controleur.avance () Bool)
(declare-fun call__main_.flby3 () Int)
(declare-fun flby () Bool)
(declare-fun call__main_.call_controleur.flby () Bool)
(declare-fun call__main_.flby2 () Int)
(declare-fun call__main_._H1_ () Bool)
(declare-fun call__main_.avance0 () Bool)
(declare-fun call__main_.call_controleur2.flby () Bool)
(declare-fun avance1 () Bool)
(declare-fun call__main_.flby () Int)
(declare-fun call__main_.call_controleur.flby2 () Bool)
(declare-fun call__main_.call_hypothese2.ok () Bool)
(declare-fun call__main_.retard0 () Bool)
(declare-fun call_Sofar.Sofar () Bool)
(declare-fun call__main_.call_hypothese2.flby2 () Int)
(declare-fun nB0 () Int)
(declare-fun call__main_.call_controleur2.retard () Bool)
(declare-fun call__main_.call_hypothese.flby () Bool)
(declare-fun retard0 () Bool)
(declare-fun call__main_.nS () Int)
(define-fun .def_615 () Bool (= ast call_Sofar.flby))
(define-fun .def_613 () Bool (not call__main_.call_controleur2.flby2))
(define-fun .def_611 () Bool (not call__main_.call_controleur2.flby))
(define-fun .def_609 () Bool (not call__main_.call_controleur.flby2))
(define-fun .def_607 () Bool (not call__main_.call_controleur.flby))
(define-fun .def_605 () Bool (= call__main_.call_hypothese2.flby2 0))
(define-fun .def_602 () Bool (= call__main_.call_hypothese.flby2 0))
(define-fun .def_599 () Bool (= call__main_.flby3 0))
(define-fun .def_597 () Bool (= call__main_.flby2 0))
(define-fun .def_595 () Bool (= call__main_.flby 0))
(define-fun .def_596 () Bool (and flby .def_595))
(define-fun .def_598 () Bool (and .def_596 .def_597))
(define-fun .def_600 () Bool (and .def_598 .def_599))
(define-fun .def_601 () Bool (and call__main_.call_hypothese.flby .def_600))
(define-fun .def_603 () Bool (and .def_601 .def_602))
(define-fun .def_604 () Bool (and call__main_.call_hypothese2.flby .def_603))
(define-fun .def_606 () Bool (and .def_604 .def_605))
(define-fun .def_608 () Bool (and .def_606 .def_607))
(define-fun .def_610 () Bool (and .def_608 .def_609))
(define-fun .def_612 () Bool (and .def_610 .def_611))
(define-fun .def_614 () Bool (and .def_612 .def_613))
(define-fun .def_616 () Bool (and .def_614 .def_615))
(define-fun .def_593 () Bool (= call_Sofar.Sofar call_Sofar.flby))
(define-fun .def_589 () Bool (= call__main_.call_controleur2.retard call__main_.call_controleur2.flby2))
(define-fun .def_586 () Bool (= call__main_.call_controleur2.avance call__main_.call_controleur2.flby))
(define-fun .def_580 () Int (* (- 1) call__main_.call_controleur2.diff))
(define-fun .def_566 () Int (* (- 1) call__main_.nS))
(define-fun .def_581 () Int (+ .def_566 .def_580))
(define-fun .def_582 () Int (+ call__main_.nB1 .def_581))
(define-fun .def_583 () Bool (= .def_582 0))
(define-fun .def_575 () Bool (= call__main_.call_controleur.retard call__main_.call_controleur.flby2))
(define-fun .def_572 () Bool (= call__main_.call_controleur.avance call__main_.call_controleur.flby))
(define-fun .def_565 () Int (* (- 1) call__main_.call_controleur.diff))
(define-fun .def_567 () Int (+ .def_566 .def_565))
(define-fun .def_568 () Int (+ call__main_.nB0 .def_567))
(define-fun .def_569 () Bool (= .def_568 0))
(define-fun .def_560 () Bool (= call__main_.call_hypothese2.c call__main_.call_hypothese2.flby2))
(define-fun .def_556 () Bool (= call__main_.call_hypothese2.ok call__main_.call_hypothese2.flby))
(define-fun .def_553 () Bool (= call__main_.call_hypothese.c call__main_.call_hypothese.flby2))
(define-fun .def_549 () Bool (= call__main_.call_hypothese.ok call__main_.call_hypothese.flby))
(define-fun .def_546 () Bool (= call__main_._H1_ call__main_.call_hypothese2.ok))
(define-fun .def_543 () Bool (= call__main_._H0_ call__main_.call_hypothese.ok))
(define-fun .def_540 () Bool (= call__main_.retard1 call__main_.call_controleur2.retard))
(define-fun .def_537 () Bool (= call__main_.retard0 call__main_.call_controleur.retard))
(define-fun .def_534 () Bool (= call__main_.avance1 call__main_.call_controleur2.avance))
(define-fun .def_531 () Bool (= call__main_.avance0 call__main_.call_controleur.avance))
(define-fun .def_528 () Bool (= call__main_.diff1 call__main_.call_controleur2.diff))
(define-fun .def_525 () Bool (= call__main_.diff0 call__main_.call_controleur.diff))
(define-fun .def_522 () Bool (= call__main_.nS call__main_.flby3))
(define-fun .def_519 () Bool (= call__main_.nB1 call__main_.flby2))
(define-fun .def_516 () Bool (= call__main_.nB0 call__main_.flby))
(define-fun .def_512 () Bool (and call__main_._H0_ call__main_._H1_))
(define-fun .def_513 () Bool (= call__main_.ast .def_512))
(define-fun .def_508 () Bool (= call__main_.ast ast))
(define-fun .def_504 () Bool (= retard1 call__main_.retard1))
(define-fun .def_500 () Bool (= retard0 call__main_.retard0))
(define-fun .def_496 () Bool (= avance1 call__main_.avance1))
(define-fun .def_492 () Bool (= avance0 call__main_.avance0))
(define-fun .def_488 () Bool (= diff1 call__main_.diff1))
(define-fun .def_484 () Bool (= diff0 call__main_.diff0))
(define-fun .def_480 () Bool (= nS call__main_.nS))
(define-fun .def_476 () Bool (= nB1 call__main_.nB1))
(define-fun .def_472 () Bool (= nB0 call__main_.nB0))
(define-fun .def_469 () Bool (= _OK_ flby))
(define-fun .def_473 () Bool (and .def_469 .def_472))
(define-fun .def_477 () Bool (and .def_473 .def_476))
(define-fun .def_481 () Bool (and .def_477 .def_480))
(define-fun .def_485 () Bool (and .def_481 .def_484))
(define-fun .def_489 () Bool (and .def_485 .def_488))
(define-fun .def_493 () Bool (and .def_489 .def_492))
(define-fun .def_497 () Bool (and .def_493 .def_496))
(define-fun .def_501 () Bool (and .def_497 .def_500))
(define-fun .def_505 () Bool (and .def_501 .def_504))
(define-fun .def_509 () Bool (and .def_505 .def_508))
(define-fun .def_514 () Bool (and .def_509 .def_513))
(define-fun .def_517 () Bool (and .def_514 .def_516))
(define-fun .def_520 () Bool (and .def_517 .def_519))
(define-fun .def_523 () Bool (and .def_520 .def_522))
(define-fun .def_526 () Bool (and .def_523 .def_525))
(define-fun .def_529 () Bool (and .def_526 .def_528))
(define-fun .def_532 () Bool (and .def_529 .def_531))
(define-fun .def_535 () Bool (and .def_532 .def_534))
(define-fun .def_538 () Bool (and .def_535 .def_537))
(define-fun .def_541 () Bool (and .def_538 .def_540))
(define-fun .def_544 () Bool (and .def_541 .def_543))
(define-fun .def_547 () Bool (and .def_544 .def_546))
(define-fun .def_550 () Bool (and .def_547 .def_549))
(define-fun .def_554 () Bool (and .def_550 .def_553))
(define-fun .def_557 () Bool (and .def_554 .def_556))
(define-fun .def_561 () Bool (and .def_557 .def_560))
(define-fun .def_570 () Bool (and .def_561 .def_569))
(define-fun .def_573 () Bool (and .def_570 .def_572))
(define-fun .def_576 () Bool (and .def_573 .def_575))
(define-fun .def_584 () Bool (and .def_576 .def_583))
(define-fun .def_587 () Bool (and .def_584 .def_586))
(define-fun .def_590 () Bool (and .def_587 .def_589))
(define-fun .def_594 () Bool (and .def_590 .def_593))
(define-fun .def_617 () Bool (and .def_594 .def_616))
(assert .def_617)
